164596
0,86,75,88,56,79,82,8,33,25,49,13,46,60,3,14,102,34,74,31,62,50,99,45,76,85,80,41,18,67,98,105,7,96,54,28,29,4,51,30,64,97,12,87,68,5,39,19,55,15,63,89,16,20,21,61,24,44,71,81,1,32,72,35,70,37,103,10,40,66,53,94,38,36,48,17,6,52,83,47,84,100,104,2,77,69,93,59,95,42,78,90,73,23,101,22,91,11,92,58,65,43,9,26,27,57
